row=9;
column=9;
Board=[|3,3,3,5,3,0,0,0,0|3,0,3,0,2,1,0,0,1|0,1,0,0,0,1,0,1,1|3,0,2,1,1,0,1,0,0|2,0,0,1,0,1,1,1,0|0,0,0,1,0,1,0,1,1|0,0,2,1,0,0,1,1,0|0,1,3,0,0,0,1,0,0|2,1,2,0,0,0,1,1,1|];
right = [2,4,1,1,0,0,0,1,1];
bottom = [0,1,0,3,1,1,1,2,1];
